networks/zoo_26_130/zoo_26_130-lower.sol
<?xml version = "1.0" encoding="UTF-8" standalone="yes"?>
<CPLEXSolution version="1.2">
 <header
   problemName="networks/zoo_26_130/zoo_26_130-lower.lp"
   solutionName="incumbent"
   solutionIndex="-1"
   objectiveValue="13"
   solutionTypeValue="3"
   solutionTypeString="primal"
   solutionStatusValue="101"
   solutionStatusString="integer optimal solution"
   solutionMethodString="mip"
   primalFeasible="1"
   dualFeasible="1"
   MIPNodes="0"
   MIPIterations="0"
   writeLevel="3"/>
 <quality
   epInt="1.0000000000000001e-05"
   epRHS="9.9999999999999995e-07"
   maxIntInfeas="0"
   maxPrimalInfeas="0"
   maxX="1"
   maxSlack="1"/>
 <variables>
  <variable name="Y(1,2)" index="1" value="1"/>
  <variable name="Y(2,10)" index="35" value="1"/>
  <variable name="Y(3,12)" index="63" value="1"/>
  <variable name="Y(4,13)" index="90" value="1"/>
  <variable name="Y(5,1)" index="104" value="1"/>
  <variable name="Y(6,3)" index="132" value="1"/>
  <variable name="Y(7,4)" index="159" value="1"/>
  <variable name="Y(8,5)" index="186" value="1"/>
  <variable name="Y(9,6)" index="213" value="1"/>
  <variable name="Y(10,7)" index="240" value="1"/>
  <variable name="Y(11,8)" index="267" value="1"/>
  <variable name="Y(12,9)" index="294" value="1"/>
  <variable name="Y(14,11)" index="348" value="1"/>
  <variable name="X(1,3,1)" index="3380" value="1"/>
  <variable name="X(1,8,11)" index="3520" value="1"/>
  <variable name="X(1,12,2)" index="3641" value="1"/>
  <variable name="X(1,14,5)" index="3774" value="1"/>
  <variable name="X(2,3,5)" index="3904" value="1"/>
  <variable name="X(2,5,7)" index="4036" value="1"/>
  <variable name="X(2,15,1)" index="4160" value="1"/>
  <variable name="X(3,1,5)" index="4294" value="1"/>
  <variable name="X(3,2,1)" index="4420" value="1"/>
  <variable name="X(3,16,6)" index="4555" value="1"/>
  <variable name="X(4,17,7)" index="4686" value="1"/>
  <variable name="X(5,2,29)" index="4838" value="1"/>
  <variable name="X(5,13,7)" index="4946" value="1"/>
  <variable name="X(5,18,8)" index="5077" value="1"/>
  <variable name="X(6,7,42)" index="5241" value="1"/>
  <variable name="X(6,10,41)" index="5370" value="1"/>
  <variable name="X(6,19,9)" index="5468" value="1"/>
  <variable name="X(7,6,9)" index="5598" value="1"/>
  <variable name="X(7,8,35)" index="5754" value="1"/>
  <variable name="X(7,13,42)" index="5891" value="1"/>
  <variable name="X(7,20,10)" index="5989" value="1"/>
  <variable name="X(8,1,53)" index="6162" value="1"/>
  <variable name="X(8,7,22)" index="6261" value="1"/>
  <variable name="X(8,21,11)" index="6380" value="1"/>
  <variable name="X(9,10,77)" index="6576" value="1"/>
  <variable name="X(9,22,12)" index="6641" value="1"/>
  <variable name="X(10,6,21)" index="6780" value="1"/>
  <variable name="X(10,9,12)" index="6901" value="1"/>
  <variable name="X(10,12,41)" index="7060" value="1"/>
  <variable name="X(10,23,2)" index="7151" value="1"/>
  <variable name="X(11,12,97)" index="7376" value="1"/>
  <variable name="X(11,24,14)" index="7423" value="1"/>
  <variable name="X(12,1,41)" index="7580" value="1"/>
  <variable name="X(12,10,2)" index="7671" value="1"/>
  <variable name="X(12,11,14)" index="7813" value="1"/>
  <variable name="X(12,13,4)" index="7933" value="1"/>
  <variable name="X(12,25,3)" index="8062" value="1"/>
  <variable name="X(13,4,7)" index="8196" value="1"/>
  <variable name="X(13,5,42)" index="8361" value="1"/>
  <variable name="X(13,7,9)" index="8458" value="1"/>
  <variable name="X(13,12,36)" index="8615" value="1"/>
  <variable name="X(13,26,4)" index="8713" value="1"/>
 </variables>
</CPLEXSolution>
